50
    1   655   655
    2   256   256
    3   896   896
    4   892   892
    5   346   346
    6   386   386
    7   927   927
    8   282   282
    9   508   508
   10    67    67
   11   165   165
   12   591   591
   13   981   981
   14    19    19
   15    95    95
   16   665   665
   17   893   893
   18   112   112
   19   822   822
   20   192   192
   21   995   995
   22   241   241
   23   679   679
   24     9     9
   25   596   596
   26   141   141
   27   256   256
   28  1000  1000
   29   228   228
   30   841   841
   31   528   528
   32   394   394
   33   645   645
   34    24    24
   35   188   188
   36   984   984
   37   961   961
   38   732   732
   39   890   890
   40   839   839
   41   277   277
   42   139   139
   43    11    11
   44   485   485
   45   156   156
   46   142   142
   47   514   514
   48   558   558
   49   956   956
   50   835   835
20828
